NAME: sym_012.tsp
TYPE: TSP
DIMENSION: 12
EDGE_WEIGHT_TYPE: EXPLICIT
EDGE_WEIGHT_FORMAT: FULL_MATRIX
EDGE_WEIGHT_SECTION
999999 12 27 34 25 95 17 33 22 52 56 71 
12 999999 41 37 7 98 26 97 25 26 70 50 
27 41 999999 72 31 15 29 100 4 27 61 98 
34 37 72 999999 51 42 6 4 28 35 91 64 
25 7 31 51 999999 24 69 15 54 49 45 99 
95 98 15 42 24 999999 56 25 60 68 9 77 
17 26 29 6 69 56 999999 37 24 25 73 81 
33 97 100 4 15 25 37 999999 37 48 64 99 
22 25 4 28 54 60 24 37 999999 64 40 54 
52 26 27 35 49 68 25 48 64 999999 82 10 
56 70 61 91 45 9 73 64 40 82 999999 80 
71 50 98 64 99 77 81 99 54 10 80 999999 
EOF
