NAME: sym_020.tsp
TYPE: TSP
DIMENSION: 20
EDGE_WEIGHT_TYPE: EXPLICIT
EDGE_WEIGHT_FORMAT: FULL_MATRIX
EDGE_WEIGHT_SECTION
999999 38 28 28 90 65 53 41 81 3 98 16 84 72 87 66 41 3 56 23 
38 999999 26 24 20 68 51 2 60 11 34 80 57 18 89 66 56 24 73 10 
28 26 999999 81 25 99 73 61 86 81 84 97 40 95 67 15 21 41 30 33 
28 24 81 999999 90 9 2 64 9 74 21 85 3 13 19 88 59 65 43 71 
90 20 25 90 999999 90 92 82 63 35 34 26 83 38 37 60 4 27 84 63 
65 68 99 9 90 999999 35 41 78 56 37 44 87 30 22 95 98 77 78 15 
53 51 73 2 92 35 999999 12 87 57 49 99 90 48 80 19 43 49 3 52 
41 2 61 64 82 41 12 999999 27 75 55 70 64 41 26 22 14 65 84 43 
81 60 86 9 63 78 87 27 999999 99 14 53 91 18 70 28 69 2 83 92 
3 11 81 74 35 56 57 75 99 999999 53 12 82 58 50 28 7 56 41 66 
98 34 84 21 34 37 49 55 14 53 999999 50 83 73 21 11 2 15 14 27 
16 80 97 85 26 44 99 70 53 12 50 999999 91 27 88 74 60 26 61 64 
84 57 40 3 83 87 90 64 91 82 83 91 999999 67 50 18 58 92 84 42 
72 18 95 13 38 30 48 41 18 58 73 27 67 999999 41 39 78 52 43 5 
87 89 67 19 37 22 80 26 70 50 21 88 50 41 999999 36 17 96 74 19 
66 66 15 88 60 95 19 22 28 28 11 74 18 39 36 999999 9 10 61 78 
41 56 21 59 4 98 43 14 69 7 2 60 58 78 17 9 999999 25 7 39 
3 24 41 65 27 77 49 65 2 56 15 26 92 52 96 10 25 999999 84 29 
56 73 30 43 84 78 3 84 83 41 14 61 84 43 74 61 7 84 999999 44 
23 10 33 71 63 15 52 43 92 66 27 64 42 5 19 78 39 29 44 999999 
EOF
