NAME: sym_015.tsp
TYPE: TSP
DIMENSION: 15
EDGE_WEIGHT_TYPE: EXPLICIT
EDGE_WEIGHT_FORMAT: FULL_MATRIX
EDGE_WEIGHT_SECTION
999999 39 91 74 5 92 29 96 96 6 90 40 46 11 63 
39 999999 34 28 17 19 65 47 39 36 23 59 27 8 37 
91 34 999999 98 26 99 46 70 4 54 28 31 42 82 61 
74 28 98 999999 69 28 17 14 92 8 83 95 95 42 73 
5 17 26 69 999999 59 62 92 42 9 94 88 87 56 5 
92 19 99 28 59 999999 17 3 42 38 78 82 49 99 99 
29 65 46 17 62 17 999999 16 38 60 75 39 40 97 83 
96 47 70 14 92 3 16 999999 85 57 84 7 47 4 42 
96 39 4 92 42 42 38 85 999999 14 28 2 6 8 87 
6 36 54 8 9 38 60 57 14 999999 70 82 54 100 75 
90 23 28 83 94 78 75 84 28 70 999999 100 92 56 59 
40 59 31 95 88 82 39 7 2 82 100 999999 77 73 95 
46 27 42 95 87 49 40 47 6 54 92 77 999999 76 85 
11 8 82 42 56 99 97 4 8 100 56 73 76 999999 38 
63 37 61 73 5 99 83 42 87 75 59 95 85 38 999999 
EOF
