NAME: sym_017.tsp
TYPE: TSP
DIMENSION: 17
EDGE_WEIGHT_TYPE: EXPLICIT
EDGE_WEIGHT_FORMAT: FULL_MATRIX
EDGE_WEIGHT_SECTION
999999 35 74 12 21 93 55 88 70 26 23 66 18 82 99 56 52 
35 999999 53 27 25 100 10 97 90 56 91 89 64 19 34 28 35 
74 53 999999 71 73 85 90 86 89 41 78 89 65 86 9 94 17 
12 27 71 999999 79 90 67 61 59 1 38 11 95 67 98 1 29 
21 25 73 79 999999 17 31 55 49 70 45 66 100 23 18 72 2 
93 100 85 90 17 999999 24 50 33 18 75 37 65 75 85 73 66 
55 10 90 67 31 24 999999 31 57 55 10 51 37 64 27 26 25 
88 97 86 61 55 50 31 999999 59 98 98 40 49 90 91 64 44 
70 90 89 59 49 33 57 59 999999 80 36 51 65 58 67 50 87 
26 56 41 1 70 18 55 98 80 999999 20 24 73 50 29 58 3 
23 91 78 38 45 75 10 98 36 20 999999 77 65 5 18 100 95 
66 89 89 11 66 37 51 40 51 24 77 999999 47 96 28 92 89 
18 64 65 95 100 65 37 49 65 73 65 47 999999 38 75 2 96 
82 19 86 67 23 75 64 90 58 50 5 96 38 999999 93 34 43 
99 34 9 98 18 85 27 91 67 29 18 28 75 93 999999 56 97 
56 28 94 1 72 73 26 64 50 58 100 92 2 34 56 999999 58 
52 35 17 29 2 66 25 44 87 3 95 89 96 43 97 58 999999 
EOF
