NAME: sym_013.tsp
TYPE: TSP
DIMENSION: 13
EDGE_WEIGHT_TYPE: EXPLICIT
EDGE_WEIGHT_FORMAT: FULL_MATRIX
EDGE_WEIGHT_SECTION
999999 51 65 58 67 50 87 20 24 73 50 29 58 
51 999999 3 77 65 5 18 100 95 47 96 28 92 
65 3 999999 89 38 75 2 96 93 34 43 56 97 
58 77 89 999999 58 97 99 86 8 30 31 39 20 
67 65 38 58 999999 86 27 32 49 17 38 56 40 
50 5 75 97 86 999999 94 85 70 94 58 8 10 
87 18 2 99 27 94 999999 21 62 68 100 36 15 
20 100 96 86 32 85 21 999999 26 52 30 88 33 
24 95 93 8 49 70 62 26 999999 75 85 70 14 
73 47 34 30 17 94 68 52 75 999999 71 71 36 
50 96 43 31 38 58 100 30 85 71 999999 56 30 
29 28 56 39 56 8 36 88 70 71 56 999999 30 
58 92 97 20 40 10 15 33 14 36 30 30 999999 
EOF
