NAME: sym_014.tsp
TYPE: TSP
DIMENSION: 14
EDGE_WEIGHT_TYPE: EXPLICIT
EDGE_WEIGHT_FORMAT: FULL_MATRIX
EDGE_WEIGHT_SECTION
999999 38 2 63 94 51 51 86 54 66 69 17 62 8 
38 999999 95 65 95 3 87 59 64 95 81 58 68 39 
2 95 999999 58 65 13 46 82 55 83 95 63 39 83 
63 65 58 999999 97 66 91 21 20 28 7 22 11 38 
94 95 65 97 999999 2 4 10 62 69 34 8 66 32 
51 3 13 66 2 999999 39 85 69 3 35 82 27 29 
51 87 46 91 4 39 999999 50 12 70 70 35 63 94 
86 59 82 21 10 85 50 999999 88 4 74 42 81 97 
54 64 55 20 62 69 12 88 999999 29 55 18 43 76 
66 95 83 28 69 3 70 4 29 999999 57 81 58 100 
69 81 95 7 34 35 70 74 55 57 999999 74 42 13 
17 58 63 22 8 82 35 42 18 81 74 999999 38 26 
62 68 39 11 66 27 63 81 43 58 42 38 999999 78 
8 39 83 38 32 29 94 97 76 100 13 26 78 999999 
EOF
