NAME: sym_022.tsp
TYPE: TSP
DIMENSION: 22
EDGE_WEIGHT_TYPE: EXPLICIT
EDGE_WEIGHT_FORMAT: FULL_MATRIX
EDGE_WEIGHT_SECTION
999999 70 69 41 6 18 92 16 45 26 24 55 10 72 19 67 94 28 64 96 52 74 
70 999999 66 56 44 62 74 42 5 25 57 36 16 76 13 2 35 12 10 5 10 5 
69 66 999999 32 86 98 71 18 48 2 10 77 50 81 48 35 18 47 44 65 40 5 
41 56 32 999999 62 95 64 89 5 27 38 2 63 94 51 51 86 54 66 69 17 62 
6 44 86 62 999999 8 95 65 95 3 87 59 64 95 81 58 68 39 58 65 13 46 
18 62 98 95 8 999999 82 55 83 95 63 39 83 97 66 91 21 20 28 7 22 11 
92 74 71 64 95 82 999999 38 2 4 10 62 69 34 8 66 32 39 85 69 3 35 
16 42 18 89 65 55 38 999999 82 27 29 50 12 70 70 35 63 94 88 4 74 42 
45 5 48 5 95 83 2 82 999999 81 97 29 55 18 43 76 57 81 58 100 74 42 
26 25 2 27 3 95 4 27 81 999999 13 38 26 78 59 35 87 94 57 86 24 43 
24 57 10 38 87 63 10 29 97 13 999999 68 76 74 76 24 11 38 91 54 51 50 
55 36 77 2 59 39 62 50 29 38 68 999999 83 39 33 30 90 10 39 6 2 96 
10 16 50 63 64 83 69 12 55 26 76 83 999999 91 85 10 36 32 96 96 68 96 
72 76 81 94 95 97 34 70 18 78 74 39 91 999999 49 58 50 64 9 45 10 30 
19 13 48 51 81 66 8 70 43 59 76 33 85 49 999999 61 33 56 68 22 76 95 
67 2 35 51 58 91 66 35 76 35 24 30 10 58 61 999999 80 79 79 12 10 94 
94 35 18 86 68 21 32 63 57 87 11 90 36 50 33 80 999999 50 98 6 100 55 
28 12 47 54 39 20 39 94 81 94 38 10 32 64 56 79 50 999999 6 45 74 89 
64 10 44 66 58 28 85 88 58 57 91 39 96 9 68 79 98 6 999999 55 36 71 
96 5 65 69 65 7 69 4 100 86 54 6 96 45 22 12 6 45 55 999999 12 97 
52 10 40 17 13 22 3 74 74 24 51 2 68 10 76 10 100 74 36 12 999999 15 
74 5 5 62 46 11 35 42 42 43 50 96 96 30 95 94 55 89 71 97 15 999999 
EOF
