NAME: sym_018.tsp
TYPE: TSP
DIMENSION: 18
EDGE_WEIGHT_TYPE: EXPLICIT
EDGE_WEIGHT_FORMAT: FULL_MATRIX
EDGE_WEIGHT_SECTION
999999 74 42 81 97 29 55 18 43 76 57 81 58 100 74 42 13 38 
74 999999 26 78 59 35 87 94 57 86 24 43 68 76 74 76 24 11 
42 26 999999 38 91 54 51 50 83 39 33 30 90 10 39 6 2 96 
81 78 38 999999 91 85 10 36 32 96 96 68 96 49 58 50 64 9 
97 59 91 91 999999 45 10 30 61 33 56 68 22 76 95 80 79 79 
29 35 54 85 45 999999 12 10 94 50 98 6 100 55 6 45 74 89 
55 87 51 10 10 12 999999 55 36 71 12 97 15 69 77 84 62 87 
18 94 50 36 30 10 55 999999 11 84 9 43 71 23 8 40 83 90 
43 57 83 32 61 94 36 11 999999 71 15 9 52 9 24 99 59 38 
76 86 39 96 33 50 71 84 71 999999 87 38 89 82 24 95 91 99 
57 24 33 96 56 98 12 9 15 87 999999 60 76 36 38 71 9 49 
81 43 30 68 68 6 97 43 9 38 60 999999 78 38 56 71 43 25 
58 68 90 96 22 100 15 71 52 89 76 78 999999 91 34 12 44 50 
100 76 10 49 76 55 69 23 9 82 36 38 91 999999 26 2 41 47 
74 74 39 58 95 6 77 8 24 24 38 56 34 26 999999 58 6 75 
42 76 6 50 80 45 84 40 99 95 71 71 12 2 58 999999 12 77 
13 24 2 64 79 74 62 83 59 91 9 43 44 41 6 12 999999 12 
38 11 96 9 79 89 87 90 38 99 49 25 50 47 75 77 12 999999 
EOF
