NAME: sym_024.tsp
TYPE: TSP
DIMENSION: 24
EDGE_WEIGHT_TYPE: EXPLICIT
EDGE_WEIGHT_FORMAT: FULL_MATRIX
EDGE_WEIGHT_SECTION
999999 80 67 32 74 63 53 89 43 62 88 24 42 3 47 88 100 3 1 88 19 53 39 94 
80 999999 94 80 8 100 1 36 6 77 9 41 4 48 48 63 59 88 28 99 40 77 10 42 
67 94 999999 34 43 53 74 74 24 1 12 47 36 30 29 86 30 72 24 59 5 28 2 92 
32 80 34 999999 99 5 43 11 39 40 68 13 22 96 95 80 79 26 9 59 42 99 88 89 
74 8 43 99 999999 95 61 47 91 62 99 17 75 100 7 24 41 95 84 65 24 61 84 52 
63 100 53 5 95 999999 13 24 5 18 39 23 4 19 96 78 83 36 81 6 63 97 22 89 
53 1 74 43 61 13 999999 52 93 60 100 53 18 27 40 52 76 50 70 100 16 90 82 47 
89 36 74 11 47 24 52 999999 23 63 23 75 54 4 60 90 59 87 10 46 88 40 27 28 
43 6 24 39 91 5 93 23 999999 13 48 89 5 96 86 87 4 81 33 66 94 56 74 9 
62 77 1 40 62 18 60 63 13 999999 29 41 26 38 1 26 70 73 5 50 54 9 97 23 
88 9 12 68 99 39 100 23 48 29 999999 11 69 90 8 100 86 7 50 89 49 52 60 91 
24 41 47 13 17 23 53 75 89 41 11 999999 83 58 35 67 68 55 57 87 27 74 88 53 
42 4 36 22 75 4 18 54 5 26 69 83 999999 80 87 66 25 86 16 87 17 71 34 84 
3 48 30 96 100 19 27 4 96 38 90 58 80 999999 24 70 94 69 11 62 70 76 19 16 
47 48 29 95 7 96 40 60 86 1 8 35 87 24 999999 89 89 97 88 47 3 88 83 1 
88 63 86 80 24 78 52 90 87 26 100 67 66 70 89 999999 13 82 34 23 75 91 17 1 
100 59 30 79 41 83 76 59 4 70 86 68 25 94 89 13 999999 82 56 84 76 51 26 1 
3 88 72 26 95 36 50 87 81 73 7 55 86 69 97 82 82 999999 20 29 9 62 33 99 
1 28 24 9 84 81 70 10 33 5 50 57 16 11 88 34 56 20 999999 56 64 12 26 38 
88 99 59 59 65 6 100 46 66 50 89 87 87 62 47 23 84 29 56 999999 64 1 54 82 
19 40 5 42 24 63 16 88 94 54 49 27 17 70 3 75 76 9 64 64 999999 78 13 11 
53 77 28 99 61 97 90 40 56 9 52 74 71 76 88 91 51 62 12 1 78 999999 29 77 
39 10 2 88 84 22 82 27 74 97 60 88 34 19 83 17 26 33 26 54 13 29 999999 2 
94 42 92 89 52 89 47 28 9 23 91 53 84 16 1 1 1 99 38 82 11 77 2 999999 
EOF
