NAME: sym_023.tsp
TYPE: TSP
DIMENSION: 23
EDGE_WEIGHT_TYPE: EXPLICIT
EDGE_WEIGHT_FORMAT: FULL_MATRIX
EDGE_WEIGHT_SECTION
999999 34 61 94 24 1 11 23 16 37 25 49 17 86 19 9 29 81 18 6 90 85 9 
34 999999 6 53 2 42 70 99 100 12 90 40 58 97 92 87 1 82 98 26 50 18 73 
61 6 999999 67 83 93 72 56 54 58 48 28 84 77 21 19 97 33 72 43 20 51 74 
94 53 67 999999 25 53 12 71 62 77 29 9 59 51 16 94 49 33 54 60 6 37 34 
24 2 83 25 999999 46 14 55 7 55 99 21 33 69 81 9 26 14 69 1 77 12 60 
1 42 93 53 46 999999 48 48 61 42 80 35 11 93 86 84 75 97 41 13 94 74 100 
11 70 72 12 14 48 999999 94 21 19 38 7 93 75 73 58 5 85 79 14 83 80 76 
23 99 56 71 55 48 94 999999 21 80 17 83 17 19 82 24 67 64 53 91 36 32 88 
16 100 54 62 7 61 21 21 999999 59 40 69 82 46 44 72 38 90 47 63 31 54 75 
37 12 58 77 55 42 19 80 59 999999 44 51 58 24 36 90 40 39 54 55 7 91 23 
25 90 48 29 99 80 38 17 40 44 999999 63 55 12 44 94 34 63 74 34 70 14 17 
49 40 28 9 21 35 7 83 69 51 63 999999 80 88 63 50 54 75 90 58 79 100 16 
17 58 84 59 33 11 93 17 82 58 55 80 999999 76 32 71 25 78 75 15 4 21 57 
86 97 77 51 69 93 75 19 46 24 12 88 76 999999 72 77 50 88 76 35 11 83 54 
19 92 21 16 81 86 73 82 44 36 44 63 32 72 999999 12 38 85 46 13 61 40 51 
9 87 19 94 9 84 58 24 72 90 94 50 71 77 12 999999 80 54 15 49 23 41 73 
29 1 97 49 26 75 5 67 38 40 34 54 25 50 38 80 999999 78 73 2 65 60 70 
81 82 33 33 14 97 85 64 90 39 63 75 78 88 85 54 78 999999 57 55 72 26 60 
18 98 72 54 69 41 79 53 47 54 74 90 75 76 46 15 73 57 999999 35 83 19 96 
6 26 43 60 1 13 14 91 63 55 34 58 15 35 13 49 2 55 35 999999 91 35 59 
90 50 20 6 77 94 83 36 31 7 70 79 4 11 61 23 65 72 83 91 999999 23 41 
85 18 51 37 12 74 80 32 54 91 14 100 21 83 40 41 60 26 19 35 23 999999 43 
9 73 74 34 60 100 76 88 75 23 17 16 57 54 51 73 70 60 96 59 41 43 999999 
EOF
