NAME: sym_025.tsp
TYPE: TSP
DIMENSION: 25
EDGE_WEIGHT_TYPE: EXPLICIT
EDGE_WEIGHT_FORMAT: FULL_MATRIX
EDGE_WEIGHT_SECTION
999999 94 80 69 92 68 61 22 95 66 83 40 67 66 58 11 35 66 16 100 61 5 32 98 87 
94 999999 41 100 88 76 79 10 57 29 74 11 88 66 41 77 33 93 67 44 81 91 77 88 80 
80 41 999999 32 44 87 82 38 13 30 55 65 1 33 33 64 37 61 40 57 70 39 39 55 45 
69 100 32 999999 60 24 55 38 45 23 2 8 59 61 17 67 65 62 76 47 51 38 55 87 96 
92 88 44 60 999999 52 85 48 92 3 82 35 11 39 15 40 53 59 25 54 48 61 40 77 55 
68 76 87 24 52 999999 82 75 72 72 96 53 2 83 20 44 1 90 65 8 90 96 25 66 93 
61 79 82 55 85 82 999999 39 7 20 94 48 36 20 11 17 49 62 26 53 29 68 31 93 81 
22 10 38 38 48 75 39 999999 54 54 59 32 9 62 72 72 40 28 98 42 83 13 53 19 13 
95 57 13 45 92 72 7 54 999999 69 86 19 80 53 19 71 30 11 80 57 19 26 92 97 43 
66 29 30 23 3 72 20 54 69 999999 49 9 81 82 56 38 5 53 64 12 96 1 61 64 82 
83 74 55 2 82 96 94 59 86 49 999999 52 89 60 23 80 22 65 62 18 42 37 84 91 91 
40 11 65 8 35 53 48 32 19 9 52 999999 77 36 56 24 26 79 31 28 74 83 86 43 68 
67 88 1 59 11 2 36 9 80 81 89 77 999999 67 81 10 77 63 15 46 43 59 16 17 24 
66 66 33 61 39 83 20 62 53 82 60 36 67 999999 74 87 87 48 22 54 10 18 3 32 65 
58 41 33 17 15 20 11 72 19 56 23 56 81 74 999999 24 61 21 55 64 24 26 40 64 60 
11 77 64 67 40 44 17 72 71 38 80 24 10 87 24 999999 6 50 15 99 28 14 60 70 68 
35 33 37 65 53 1 49 40 30 5 22 26 77 87 61 6 999999 41 45 43 45 72 73 70 2 
66 93 61 62 59 90 62 28 11 53 65 79 63 48 21 50 41 999999 100 35 13 82 11 61 73 
16 67 40 76 25 65 26 98 80 64 62 31 15 22 55 15 45 100 999999 34 58 91 28 78 8 
100 44 57 47 54 8 53 42 57 12 18 28 46 54 64 99 43 35 34 999999 27 9 65 90 60 
61 81 70 51 48 90 29 83 19 96 42 74 43 10 24 28 45 13 58 27 999999 20 41 33 37 
5 91 39 38 61 96 68 13 26 1 37 83 59 18 26 14 72 82 91 9 20 999999 23 35 36 
32 77 39 55 40 25 31 53 92 61 84 86 16 3 40 60 73 11 28 65 41 23 999999 62 7 
98 88 55 87 77 66 93 19 97 64 91 43 17 32 64 70 70 61 78 90 33 35 62 999999 45 
87 80 45 96 55 93 81 13 43 82 91 68 24 65 60 68 2 73 8 60 37 36 7 45 999999 
EOF
