NAME: sym_016.tsp
TYPE: TSP
DIMENSION: 16
EDGE_WEIGHT_TYPE: EXPLICIT
EDGE_WEIGHT_FORMAT: FULL_MATRIX
EDGE_WEIGHT_SECTION
999999 38 80 96 19 74 78 60 60 16 45 16 10 6 46 87 
38 999999 34 61 15 71 66 3 6 97 73 84 94 22 1 19 
80 34 999999 100 19 62 31 62 53 1 44 3 30 53 62 40 
96 61 100 999999 14 5 30 98 37 24 46 10 79 62 20 39 
19 15 19 14 999999 52 99 60 47 5 86 61 69 18 46 7 
74 71 62 5 52 999999 2 95 95 97 57 81 39 31 2 10 
78 66 31 30 99 2 999999 24 69 25 45 69 13 61 50 84 
60 3 62 98 60 95 24 999999 4 18 91 40 26 19 67 76 
60 6 53 37 47 95 69 4 999999 32 43 53 21 55 57 19 
16 97 1 24 5 97 25 18 32 999999 4 97 85 78 45 94 
45 73 44 46 86 57 45 91 43 4 999999 40 90 93 60 73 
16 84 3 10 61 81 69 40 53 97 40 999999 93 33 9 58 
10 94 30 79 69 39 13 26 21 85 90 93 999999 20 53 5 
6 22 53 62 18 31 61 19 55 78 93 33 20 999999 97 33 
46 1 62 20 46 2 50 67 57 45 60 9 53 97 999999 85 
87 19 40 39 7 10 84 76 19 94 73 58 5 33 85 999999 
EOF
