NAME: sym_019.tsp
TYPE: TSP
DIMENSION: 19
EDGE_WEIGHT_TYPE: EXPLICIT
EDGE_WEIGHT_FORMAT: FULL_MATRIX
EDGE_WEIGHT_SECTION
999999 52 88 16 93 38 7 1 28 87 81 9 75 60 19 99 21 54 38 
52 999999 93 49 24 62 76 37 54 47 73 75 7 4 15 26 14 72 69 
88 93 999999 90 85 52 75 54 4 11 87 45 36 54 40 25 11 27 74 
16 49 90 999999 38 19 3 57 33 85 22 9 33 54 12 24 90 35 60 
93 24 85 38 999999 48 68 36 79 65 50 48 9 59 54 74 59 56 75 
38 62 52 19 48 999999 59 44 57 13 38 29 34 37 90 65 61 58 25 
7 76 75 3 68 59 999999 36 50 99 34 61 94 24 1 11 23 16 37 
1 37 54 57 36 44 36 999999 25 49 17 86 19 9 29 81 18 6 90 
28 54 4 33 79 57 50 25 999999 85 9 6 53 2 42 70 99 100 12 
87 47 11 85 65 13 99 49 85 999999 90 40 58 97 92 87 1 82 98 
81 73 87 22 50 38 34 17 9 90 999999 26 50 18 73 67 83 93 72 
9 75 45 9 48 29 61 86 6 40 26 999999 56 54 58 48 28 84 77 
75 7 36 33 9 34 94 19 53 58 50 56 999999 21 19 97 33 72 43 
60 4 54 54 59 37 24 9 2 97 18 54 21 999999 20 51 74 25 53 
19 15 40 12 54 90 1 29 42 92 73 58 19 20 999999 12 71 62 77 
99 26 25 24 74 65 11 81 70 87 67 48 97 51 12 999999 29 9 59 
21 14 11 90 59 61 23 18 99 1 83 28 33 74 71 29 999999 51 16 
54 72 27 35 56 58 16 6 100 82 93 84 72 25 62 9 51 999999 94 
38 69 74 60 75 25 37 90 12 98 72 77 43 53 77 59 16 94 999999 
EOF
