NAME: sym_021.tsp
TYPE: TSP
DIMENSION: 21
EDGE_WEIGHT_TYPE: EXPLICIT
EDGE_WEIGHT_FORMAT: FULL_MATRIX
EDGE_WEIGHT_SECTION
999999 38 80 96 19 74 78 60 60 16 45 16 10 6 46 87 34 61 15 71 66 
38 999999 3 6 97 73 84 94 22 1 19 100 19 62 31 62 53 1 44 3 30 
80 3 999999 53 62 40 14 5 30 98 37 24 46 10 79 62 20 39 52 99 60 
96 6 53 999999 47 5 86 61 69 18 46 7 2 95 95 97 57 81 39 31 2 
19 97 62 47 999999 10 24 69 25 45 69 13 61 50 84 4 18 91 40 26 19 
74 73 40 5 10 999999 67 76 32 43 53 21 55 57 19 4 97 85 78 45 94 
78 84 14 86 24 67 999999 40 90 93 60 73 93 33 9 58 20 53 5 97 33 
60 94 5 61 69 76 40 999999 85 39 75 28 54 83 59 36 97 29 61 55 28 
60 22 30 69 25 32 90 85 999999 15 30 81 17 8 2 99 43 78 40 20 30 
16 1 98 18 45 43 93 39 15 999999 1 2 82 20 71 72 73 80 78 61 8 
45 19 37 46 69 53 60 75 30 1 999999 93 36 66 12 92 87 86 63 45 34 
16 100 24 7 13 21 73 28 81 2 93 999999 10 7 38 32 67 33 67 73 60 
10 19 46 2 61 55 93 54 17 82 36 10 999999 64 28 89 57 48 39 12 98 
6 62 10 95 50 57 33 83 8 20 66 7 64 999999 72 85 77 73 57 24 78 
46 31 79 95 84 19 9 59 2 71 12 38 28 72 999999 26 50 5 53 72 43 
87 62 62 97 4 4 58 36 99 72 92 32 89 85 26 999999 12 3 44 11 21 
34 53 20 57 18 97 20 97 43 73 87 67 57 77 50 12 999999 4 90 64 48 
61 1 39 81 91 85 53 29 78 80 86 33 48 73 5 3 4 999999 32 57 51 
15 44 52 39 40 78 5 61 40 78 63 67 39 57 53 44 90 32 999999 70 91 
71 3 99 31 26 45 97 55 20 61 45 73 12 24 72 11 64 57 70 999999 14 
66 30 60 2 19 94 33 28 30 8 34 60 98 78 43 21 48 51 91 14 999999 
EOF
